(set-option :produce-models true)
(set-logic QF_UF)
(declare-fun p50() Bool)
(declare-fun p9() Bool)
(declare-fun p30() Bool)
(declare-fun p3() Bool)
(declare-fun p41() Bool)
(declare-fun p6() Bool)
(declare-fun p66() Bool)
(declare-fun p11() Bool)
(declare-fun p7() Bool)
(declare-fun p28() Bool)
(declare-fun p68() Bool)
(declare-fun p33() Bool)
(declare-fun p20() Bool)
(declare-fun p46() Bool)
(declare-fun p52() Bool)
(declare-fun p55() Bool)
(declare-fun p56() Bool)
(declare-fun p51() Bool)
(declare-fun p63() Bool)
(declare-fun p49() Bool)
(declare-fun p40() Bool)
(declare-fun p18() Bool)
(declare-fun p42() Bool)
(declare-fun p39() Bool)
(declare-fun p5() Bool)
(declare-fun p15() Bool)
(declare-fun p27() Bool)
(declare-fun p32() Bool)
(declare-fun p26() Bool)
(declare-fun p23() Bool)
(declare-fun p17() Bool)
(declare-fun p24() Bool)
(declare-fun p13() Bool)
(declare-fun p61() Bool)
(declare-fun p47() Bool)
(declare-fun p10() Bool)
(declare-fun p60() Bool)
(declare-fun p38() Bool)
(declare-fun p58() Bool)
(declare-fun p22() Bool)
(declare-fun p12() Bool)
(declare-fun p14() Bool)
(declare-fun p64() Bool)
(declare-fun p54() Bool)
(declare-fun p45() Bool)
(declare-fun p59() Bool)
(declare-fun p67() Bool)
(declare-fun p31() Bool)
(declare-fun p62() Bool)
(declare-fun p16() Bool)
(declare-fun p36() Bool)
(declare-fun p0() Bool)
(declare-fun p8() Bool)
(declare-fun p1() Bool)
(declare-fun p4() Bool)
(declare-fun p25() Bool)
(declare-fun p53() Bool)
(declare-fun p34() Bool)
(declare-fun p37() Bool)
(declare-fun p65() Bool)
(declare-fun p69() Bool)
(declare-fun p21() Bool)
(declare-fun p57() Bool)
(declare-fun p29() Bool)
(declare-fun p35() Bool)
(declare-fun p44() Bool)
(declare-fun p48() Bool)
(declare-fun p2() Bool)
(declare-fun p19() Bool)
(declare-fun p43() Bool)
(assert
(and (or p50 (not p9) p30) (or p3 p41 (not p6)) (or p50 (not p66) p11) (or p7 (not p28) (not p68)) (or p33 p20 (not p50)) (or (not p46) p52 p55) (or (not p56) p52 p51) (or p63 (not p49) p40) (or p18 p20 p42) (or (not p39) (not p7) p39) (or p7 p41 (not p5)) (or p15 p27 (not p32)) (or p56 (not p26) p23) (or (not p17) (not p24) (not p13)) (or p61 (not p47) p10) (or (not p50) (not p60) p26) (or (not p18) p51 p38) (or p47 (not p39) (not p39)) (or (not p58) p22 (not p32)) (or (not p12) (not p14) (not p26)) (or (not p64) p52 (not p54)) (or p45 (not p59) (not p68)) (or p24 (not p55) (not p67)) (or (not p31) (not p13) p66) (or (not p68) (not p62) p16) (or (not p36) (not p52) p24) (or p16 p32 p52) (or (not p36) (not p0) (not p10)) (or p40 p45 p61) (or p8 p45 p22) (or (not p66) (not p18) (not p58)) (or p59 (not p6) (not p1)) (or p59 (not p62) p4) (or p46 p47 (not p47)) (or (not p52) p25 (not p53)) (or (not p34) p47 (not p37)) (or p65 p51 p61) (or (not p25) p25 p3) (or p4 (not p32) (not p34)) (or (not p61) (not p33) p39) (or p38 (not p20) (not p27)) (or p54 p47 p14) (or p69 p18 p47) (or p20 p1 (not p30)) (or p67 p18 p21) (or p68 p38 (not p41)) (or p27 (not p23) p36) (or p4 p31 p42) (or (not p52) (not p17) p24) (or (not p49) (not p46) p17) (or p62 (not p33) p12) (or p69 (not p49) p8) (or p4 p40 p26) (or (not p13) (not p57) (not p11)) (or p61 (not p30) p29) (or p3 p5 p45) (or (not p62) p13 p5) (or (not p3) (not p34) (not p39)) (or (not p57) (not p15) (not p15)) (or (not p3) p35 (not p36)) (or (not p20) p53 (not p44)) (or (not p35) (not p40) p51) (or p52 p66 p47) (or (not p16) (not p10) (not p52)) (or (not p56) (not p13) (not p45)) (or (not p55) p33 (not p21)) (or (not p37) (not p35) p30) (or p32 p62 p26) (or p61 p59 (not p17)) (or (not p46) (not p56) (not p67)) (or p51 (not p56) (not p33)) (or (not p46) p49 p59) (or p32 (not p18) (not p21)) (or p32 p21 p60) (or (not p68) p46 p6) (or p45 p31 p30) (or (not p44) p37 (not p63)) (or (not p48) p18 p8) (or p35 (not p61) (not p16)) (or (not p39) p15 p66) (or p18 p22 p48) (or p41 p2 p34) (or p45 (not p35) p67) (or p9 p38 (not p33)) (or (not p50) p41 (not p19)) (or (not p51) p41 p16) (or (not p65) (not p45) (not p27)) (or (not p38) (not p39) (not p55)) (or p27 p68 (not p15)) (or p67 (not p23) (not p30)) (or p37 p4 (not p9)) (or p58 (not p30) (not p0)) (or (not p40) (not p29) p7) (or (not p13) (not p35) (not p28)) (or (not p52) p30 (not p67)) (or (not p14) p28 p32) (or p8 (not p57) p26) (or (not p38) (not p67) p1) (or p37 p52 p60) (or (not p68) p43 p55) (or p30 (not p40) p53) (or (not p49) (not p62) p33) (or p17 (not p48) (not p29)) (or p36 p10 p45) (or p50 p54 (not p18)) (or (not p28) (not p40) (not p22)) (or (not p56) (not p36) (not p60)) (or (not p4) (not p34) p52) (or p61 p5 p2) (or p5 p63 p18) (or (not p43) (not p42) (not p16)) (or (not p61) p8 (not p11)) (or (not p26) (not p26) p3) (or (not p50) (not p1) (not p19)) (or (not p11) (not p37) p9) (or p41 p67 (not p5)) (or (not p11) p50 p16) (or p28 p61 (not p47)) (or (not p29) p56 p21) (or p33 p4 p28) (or (not p24) p68 (not p68)) (or p14 p27 (not p66)) (or (not p46) (not p62) p8) (or (not p30) (not p37) (not p37)) (or (not p24) p45 (not p12)) (or p33 (not p49) (not p37)) (or p12 (not p15) p29) (or (not p0) (not p14) p39) (or p2 (not p41) p3) (or (not p2) p9 p18) (or p42 (not p1) (not p59)) (or p19 p23 (not p29)) (or (not p68) p7 (not p45)) (or (not p12) (not p0) p7) (or p39 (not p36) (not p67)) (or (not p13) p36 (not p54)) (or (not p31) p33 p2) (or (not p50) (not p29) (not p64)) (or p30 (not p56) p54) (or p33 (not p30) (not p55)) (or (not p35) p6 (not p29)) (or p67 p65 p16) (or p52 p54 (not p3)) (or (not p40) p1 p21) (or (not p16) p67 p63) (or (not p42) (not p27) (not p68)) (or p2 (not p14) p46) (or (not p67) (not p32) p34) (or p59 p7 p4) (or p65 p18 p46) (or p56 p45 p6) (or (not p48) (not p13) (not p14)) (or (not p21) p39 (not p50)) (or (not p36) (not p38) (not p50)) (or (not p15) (not p26) p29) (or p33 (not p19) (not p53)) (or p3 p41 (not p16)) (or p59 (not p34) (not p34)) (or (not p26) p63 (not p39)) (or (not p27) p65 p59) (or p37 (not p21) (not p56)) (or (not p51) p56 (not p40)) (or p36 p65 (not p39)) (or (not p31) (not p47) p35) (or (not p49) p25 p6) (or p40 (not p68) (not p7)) (or p14 p58 (not p45)) (or (not p40) p0 (not p36)) (or p38 p44 p69) (or p40 (not p62) p2) (or (not p42) (not p5) p47) (or p42 (not p44) p46) (or (not p40) p36 (not p24)) (or (not p19) p42 (not p61)) (or p31 (not p34) p39) (or (not p3) p56 p58) (or p43 p37 p24) (or (not p52) (not p8) p40) (or p20 p4 (not p40)) (or (not p67) (not p16) p24) (or (not p52) p24 p6) (or (not p6) p48 p45) (or p2 (not p45) (not p40)) (or p47 p57 (not p43)) (or p39 (not p24) p67) (or p59 (not p51) (not p59)) (or (not p9) p19 (not p69)) (or (not p9) (not p28) p49) (or (not p43) (not p54) p0) (or p42 (not p68) p2) (or p43 p45 (not p25)) (or p14 p38 p26) (or p7 (not p46) (not p17)) (or (not p49) (not p61) p23) (or (not p48) p26 p64) (or (not p2) (not p27) (not p19)) (or (not p51) p25 (not p13)) (or p52 (not p50) (not p47)) (or (not p59) (not p2) p6) (or p20 p32 (not p59)) (or (not p54) (not p40) p36) (or (not p26) (not p5) (not p31)) (or (not p10) p51 (not p63)) (or p67 (not p47) (not p44)) (or (not p66) (not p54) p40) (or (not p40) (not p12) p63) (or p62 (not p39) (not p40)) (or (not p52) (not p26) (not p41)) (or p28 p48 p60) (or (not p58) p34 (not p62)) (or p64 (not p68) p55) (or p9 (not p14) p19) (or p48 p40 (not p49)) (or (not p19) (not p5) p14) (or p14 p17 p7) (or p62 (not p65) p59) (or p39 p30 (not p48)) (or p6 p29 p59) (or p25 p36 (not p5)) (or p29 (not p7) p3) (or p35 p52 (not p25)) (or p59 (not p32) p63) (or (not p14) p2 (not p54)) (or (not p9) (not p34) (not p35)) (or p51 (not p39) (not p68)) (or (not p39) (not p44) p54) (or (not p1) p57 p68) (or (not p55) (not p48) p54) (or p40 p29 p19) (or p67 p5 p55) (or p17 (not p27) (not p25)) (or p68 (not p67) (not p34)) (or p60 p5 (not p39)) (or (not p2) p23 (not p57)) (or (not p40) (not p64) (not p9)) (or p68 p19 p26) (or (not p19) (not p30) p63) (or p13 p30 (not p23)) (or p14 (not p16) p31) (or p0 p69 p32) (or p21 (not p15) (not p61)) (or p17 (not p41) (not p23)) (or (not p45) p25 p51) (or (not p36) p52 (not p48)) (or p48 p1 p43) (or (not p31) p35 p59) (or p15 p45 (not p9)) (or (not p7) p18 p8) (or p42 p34 (not p35)) (or p46 p35 p65) (or p33 p17 (not p42)) (or p46 p2 (not p3)) (or p46 p9 (not p34)) (or p19 p53 p62) (or p15 (not p42) (not p16)) (or p0 p36 p37) (or p42 (not p51) p41) (or (not p25) (not p24) p44) (or (not p22) (not p10) p51) (or p58 p63 p2) (or (not p9) (not p11) p25) (or p1 (not p37) (not p1)) (or p50 p43 (not p62)) (or (not p29) p39 p8) (or (not p0) p62 p14) (or (not p56) (not p45) p12) (or p25 (not p26) p18) (or p58 p47 p52) (or (not p35) (not p24) (not p59)) (or p26 (not p61) (not p52)) (or (not p48) (not p67) p34) (or (not p22) p23 (not p9)) (or (not p14) (not p38) p0) (or p69 (not p28) p44) (or p43 (not p11) (not p63)) (or p59 (not p17) p26) (or (not p24) (not p25) p43) (or (not p25) p62 (not p52)) (or p25 p18 (not p11)) (or p8 (not p63) (not p53)) (or (not p15) (not p66) (not p51)) (or p50 (not p49) (not p35)) (or (not p43) (not p7) (not p6)) (or (not p50) (not p67) p57) (or p18 p58 p13) (or p3 p65 (not p1)) (or (not p43) (not p60) (not p15)) (or (not p63) (not p62) (not p2)) (or p29 p10 (not p19)) (or (not p22) p31 p66) (or (not p67) p43 p33) (or p64 p60 (not p1)) (or p34 p47 p25) (or p37 p4 (not p23)) (or p18 p22 p27) (or p7 (not p59) (not p17)) (or p11 (not p34) p59))
)
(check-sat)
(get-model)
